c turning on binary mode checking
c parsing input formula with 259840 variables and 1039919 clauses
c finished parsing, read 30875689 bytes from proof file
c detected empty clause; start verification via backward checking
c 57838 of 1039919 clauses in core                            
c 87874 of 712900 lemmas in core using 919885 resolution steps
c 0 RAT lemmas in core; 9428 redundant literals in core lemmas
s VERIFIED
c verification time: 5.978 seconds
